StringID Type x y demand ReadyTime DueDate ServiceTime
D0 d 40 50 0 0 1236 0
Dt d 40 50 0 0 1236 0
S0 f 40 50 0 0 1236 0
S15 f 39 26 0 0 1236 0
C20 c1 30 50 10 0 1136 90
C98 c3 58 75 20 0 1115 90
C65 c2 48 40 10 67 139 90
C57 c1 40 15 40 989 1063 90
C24 c3 25 50 10 0 1131 90
P0 p 38 66 0 0 1236 45
param Q := 77.75
param CV := 200
param r := 1
param g := 3.47
param V := 1
